p wcnf 266 1136 164
66 1 0
35 2 0
24 3 0
17 4 0
11 5 0
8 6 0
2 7 0
164 -1 -20 21 0
164 -1 -21 22 0
164 -1 -22 23 0
164 -1 -23 24 0
164 -1 -24 25 0
164 -1 -25 26 0
164 -1 -26 27 0
164 -1 -27 28 0
164 -1 -28 29 0
164 -1 -29 30 0
164 -1 -30 31 0
164 -1 -31 32 0
164 -1 -32 33 0
164 -1 -33 34 0
164 -1 -35 36 0
164 -1 -36 37 0
164 -1 -37 38 0
164 -1 -38 39 0
164 -1 -39 40 0
164 -1 -40 41 0
164 -1 -41 42 0
164 -1 -42 43 0
164 -1 -43 44 0
164 -2 -57 58 0
164 -2 -58 59 0
164 -2 -59 60 0
164 -2 -60 61 0
164 -2 -61 62 0
164 -2 -62 63 0
164 -2 -63 64 0
164 -2 -64 65 0
164 -2 -65 66 0
164 -2 -66 67 0
164 -2 -67 68 0
164 -2 -68 69 0
164 -2 -69 70 0
164 -2 -70 71 0
164 -2 -72 73 0
164 -2 -73 74 0
164 -2 -74 75 0
164 -2 -75 76 0
164 -2 -76 77 0
164 -2 -77 78 0
164 -2 -78 79 0
164 -2 -79 80 0
164 -2 -80 81 0
164 -3 -94 95 0
164 -3 -95 96 0
164 -3 -96 97 0
164 -3 -97 98 0
164 -3 -98 99 0
164 -3 -99 100 0
164 -3 -100 101 0
164 -3 -101 102 0
164 -3 -102 103 0
164 -3 -103 104 0
164 -3 -104 105 0
164 -3 -105 106 0
164 -3 -106 107 0
164 -3 -107 108 0
164 -3 -109 110 0
164 -3 -110 111 0
164 -3 -111 112 0
164 -3 -112 113 0
164 -3 -113 114 0
164 -3 -114 115 0
164 -3 -115 116 0
164 -3 -116 117 0
164 -3 -117 118 0
164 -4 -131 132 0
164 -4 -132 133 0
164 -4 -133 134 0
164 -4 -134 135 0
164 -4 -135 136 0
164 -4 -136 137 0
164 -4 -137 138 0
164 -4 -138 139 0
164 -4 -139 140 0
164 -4 -140 141 0
164 -4 -141 142 0
164 -4 -142 143 0
164 -4 -143 144 0
164 -4 -144 145 0
164 -4 -146 147 0
164 -4 -147 148 0
164 -4 -148 149 0
164 -4 -149 150 0
164 -4 -150 151 0
164 -4 -151 152 0
164 -4 -152 153 0
164 -4 -153 154 0
164 -4 -154 155 0
164 -5 -168 169 0
164 -5 -169 170 0
164 -5 -170 171 0
164 -5 -171 172 0
164 -5 -172 173 0
164 -5 -173 174 0
164 -5 -174 175 0
164 -5 -175 176 0
164 -5 -176 177 0
164 -5 -177 178 0
164 -5 -178 179 0
164 -5 -179 180 0
164 -5 -180 181 0
164 -5 -181 182 0
164 -5 -183 184 0
164 -5 -184 185 0
164 -5 -185 186 0
164 -5 -186 187 0
164 -5 -187 188 0
164 -5 -188 189 0
164 -5 -189 190 0
164 -5 -190 191 0
164 -5 -191 192 0
164 -6 -205 206 0
164 -6 -206 207 0
164 -6 -207 208 0
164 -6 -208 209 0
164 -6 -209 210 0
164 -6 -210 211 0
164 -6 -211 212 0
164 -6 -212 213 0
164 -6 -213 214 0
164 -6 -214 215 0
164 -6 -215 216 0
164 -6 -216 217 0
164 -6 -217 218 0
164 -6 -218 219 0
164 -6 -220 221 0
164 -6 -221 222 0
164 -6 -222 223 0
164 -6 -223 224 0
164 -6 -224 225 0
164 -6 -225 226 0
164 -6 -226 227 0
164 -6 -227 228 0
164 -6 -228 229 0
164 -7 -242 243 0
164 -7 -243 244 0
164 -7 -244 245 0
164 -7 -245 246 0
164 -7 -246 247 0
164 -7 -247 248 0
164 -7 -248 249 0
164 -7 -249 250 0
164 -7 -250 251 0
164 -7 -251 252 0
164 -7 -252 253 0
164 -7 -253 254 0
164 -7 -254 255 0
164 -7 -255 256 0
164 -7 -257 258 0
164 -7 -258 259 0
164 -7 -259 260 0
164 -7 -260 261 0
164 -7 -261 262 0
164 -7 -262 263 0
164 -7 -263 264 0
164 -7 -264 265 0
164 -7 -265 266 0
164 -1 -2 8 45 0
164 -1 -2 -8 -57 0
164 -1 -2 -8 -58 0
164 -1 -2 -8 -59 0
164 -1 -2 -8 -60 0
164 -1 -2 -8 -61 0
164 -1 -2 -8 -62 0
164 -1 -2 -8 -63 0
164 -1 -2 -8 -64 0
164 -1 -2 -45 -20 0
164 -1 -2 -45 -21 0
164 -1 -2 -45 -22 0
164 -1 -2 -8 20 -65 0
164 -1 -2 -45 57 -23 0
164 -1 -2 -8 21 -66 0
164 -1 -2 -45 58 -24 0
164 -1 -2 -8 22 -67 0
164 -1 -2 -45 59 -25 0
164 -1 -2 -8 23 -68 0
164 -1 -2 -45 60 -26 0
164 -1 -2 -8 24 -69 0
164 -1 -2 -45 61 -27 0
164 -1 -2 -8 25 -70 0
164 -1 -2 -45 62 -28 0
164 -1 -2 -8 26 -71 0
164 -1 -2 -45 63 -29 0
164 -1 -3 11 83 0
164 -1 -3 -11 -109 0
164 -1 -3 -11 -110 0
164 -1 -3 -11 -111 0
164 -1 -3 -11 -112 0
164 -1 -3 -83 -35 0
164 -1 -3 -83 -36 0
164 -1 -3 -11 35 -113 0
164 -1 -3 -83 109 -37 0
164 -1 -3 -11 36 -114 0
164 -1 -3 -83 110 -38 0
164 -1 -3 -11 37 -115 0
164 -1 -3 -83 111 -39 0
164 -1 -3 -11 38 -116 0
164 -1 -3 -83 112 -40 0
164 -1 -3 -11 39 -117 0
164 -1 -3 -83 113 -41 0
164 -1 -3 -11 40 -118 0
164 -1 -3 -83 114 -42 0
164 -1 -3 82 11 83 0
164 -1 -3 -82 -20 0
164 -1 -3 -82 -21 0
164 -1 -3 -82 -22 0
164 -1 -3 -82 -23 0
164 -1 -3 -82 -24 0
164 -1 -3 -82 -25 0
164 -1 -3 -82 -26 0
164 -1 -3 -82 -27 0
164 -1 -3 -11 -109 0
164 -1 -3 -11 -110 0
164 -1 -3 -11 -111 0
164 -1 -3 -11 -112 0
164 -1 -3 -83 -35 0
164 -1 -3 -83 -36 0
164 -1 -3 -82 94 -28 0
164 -1 -3 -82 95 -29 0
164 -1 -3 -82 96 -30 0
164 -1 -3 -82 97 -31 0
164 -1 -3 -82 98 -32 0
164 -1 -3 -82 99 -33 0
164 -1 -3 -82 100 -34 0
164 -1 -3 -11 35 -113 0
164 -1 -3 -83 109 -37 0
164 -1 -3 -11 36 -114 0
164 -1 -3 -83 110 -38 0
164 -1 -3 -11 37 -115 0
164 -1 -3 -83 111 -39 0
164 -1 -3 -11 38 -116 0
164 -1 -3 -83 112 -40 0
164 -1 -3 -11 39 -117 0
164 -1 -3 -83 113 -41 0
164 -1 -3 -11 40 -118 0
164 -1 -3 -83 114 -42 0
164 -1 -4 12 119 13 120 0
164 -1 -4 -12 -131 0
164 -1 -4 -12 -132 0
164 -1 -4 -12 -133 0
164 -1 -4 -12 -134 0
164 -1 -4 -12 -135 0
164 -1 -4 -12 -136 0
164 -1 -4 -12 -137 0
164 -1 -4 -12 -138 0
164 -1 -4 -119 -20 0
164 -1 -4 -119 -21 0
164 -1 -4 -119 -22 0
164 -1 -4 -13 -146 0
164 -1 -4 -13 -147 0
164 -1 -4 -13 -148 0
164 -1 -4 -13 -149 0
164 -1 -4 -120 -35 0
164 -1 -4 -120 -36 0
164 -1 -4 -120 -37 0
164 -1 -4 -120 -38 0
164 -1 -4 -12 20 -139 0
164 -1 -4 -119 131 -23 0
164 -1 -4 -12 21 -140 0
164 -1 -4 -119 132 -24 0
164 -1 -4 -12 22 -141 0
164 -1 -4 -119 133 -25 0
164 -1 -4 -12 23 -142 0
164 -1 -4 -119 134 -26 0
164 -1 -4 -12 24 -143 0
164 -1 -4 -119 135 -27 0
164 -1 -4 -12 25 -144 0
164 -1 -4 -119 136 -28 0
164 -1 -4 -12 26 -145 0
164 -1 -4 -119 137 -29 0
164 -1 -4 -13 35 -150 0
164 -1 -4 -120 146 -39 0
164 -1 -4 -13 36 -151 0
164 -1 -4 -120 147 -40 0
164 -1 -4 -13 37 -152 0
164 -1 -4 -120 148 -41 0
164 -1 -4 -13 38 -153 0
164 -1 -4 -120 149 -42 0
164 -1 -4 -13 39 -154 0
164 -1 -4 -120 150 -43 0
164 -1 -4 -13 40 -155 0
164 -1 -4 -120 151 -44 0
164 -1 -5 14 156 15 157 0
164 -1 -5 -14 -168 0
164 -1 -5 -14 -169 0
164 -1 -5 -14 -170 0
164 -1 -5 -14 -171 0
164 -1 -5 -14 -172 0
164 -1 -5 -14 -173 0
164 -1 -5 -14 -174 0
164 -1 -5 -14 -175 0
164 -1 -5 -156 -20 0
164 -1 -5 -156 -21 0
164 -1 -5 -156 -22 0
164 -1 -5 -15 -183 0
164 -1 -5 -15 -184 0
164 -1 -5 -15 -185 0
164 -1 -5 -15 -186 0
164 -1 -5 -157 -35 0
164 -1 -5 -157 -36 0
164 -1 -5 -157 -37 0
164 -1 -5 -14 20 -176 0
164 -1 -5 -156 168 -23 0
164 -1 -5 -14 21 -177 0
164 -1 -5 -156 169 -24 0
164 -1 -5 -14 22 -178 0
164 -1 -5 -156 170 -25 0
164 -1 -5 -14 23 -179 0
164 -1 -5 -156 171 -26 0
164 -1 -5 -14 24 -180 0
164 -1 -5 -156 172 -27 0
164 -1 -5 -14 25 -181 0
164 -1 -5 -156 173 -28 0
164 -1 -5 -14 26 -182 0
164 -1 -5 -156 174 -29 0
164 -1 -5 -15 35 -187 0
164 -1 -5 -157 183 -38 0
164 -1 -5 -15 36 -188 0
164 -1 -5 -157 184 -39 0
164 -1 -5 -15 37 -189 0
164 -1 -5 -157 185 -40 0
164 -1 -5 -15 38 -190 0
164 -1 -5 -157 186 -41 0
164 -1 -5 -15 39 -191 0
164 -1 -5 -157 187 -42 0
164 -1 -5 -15 40 -192 0
164 -1 -5 -157 188 -43 0
164 -1 -6 16 193 17 194 0
164 -1 -6 -16 -205 0
164 -1 -6 -16 -206 0
164 -1 -6 -16 -207 0
164 -1 -6 -16 -208 0
164 -1 -6 -16 -209 0
164 -1 -6 -16 -210 0
164 -1 -6 -16 -211 0
164 -1 -6 -16 -212 0
164 -1 -6 -193 -20 0
164 -1 -6 -193 -21 0
164 -1 -6 -193 -22 0
164 -1 -6 -17 -220 0
164 -1 -6 -17 -221 0
164 -1 -6 -17 -222 0
164 -1 -6 -17 -223 0
164 -1 -6 -194 -35 0
164 -1 -6 -194 -36 0
164 -1 -6 -16 20 -213 0
164 -1 -6 -193 205 -23 0
164 -1 -6 -16 21 -214 0
164 -1 -6 -193 206 -24 0
164 -1 -6 -16 22 -215 0
164 -1 -6 -193 207 -25 0
164 -1 -6 -16 23 -216 0
164 -1 -6 -193 208 -26 0
164 -1 -6 -16 24 -217 0
164 -1 -6 -193 209 -27 0
164 -1 -6 -16 25 -218 0
164 -1 -6 -193 210 -28 0
164 -1 -6 -16 26 -219 0
164 -1 -6 -193 211 -29 0
164 -1 -6 -17 35 -224 0
164 -1 -6 -194 220 -37 0
164 -1 -6 -17 36 -225 0
164 -1 -6 -194 221 -38 0
164 -1 -6 -17 37 -226 0
164 -1 -6 -194 222 -39 0
164 -1 -6 -17 38 -227 0
164 -1 -6 -194 223 -40 0
164 -1 -6 -17 39 -228 0
164 -1 -6 -194 224 -41 0
164 -1 -6 -17 40 -229 0
164 -1 -6 -194 225 -42 0
164 -1 -7 18 230 19 231 0
164 -1 -7 -18 -242 0
164 -1 -7 -18 -243 0
164 -1 -7 -18 -244 0
164 -1 -7 -18 -245 0
164 -1 -7 -18 -246 0
164 -1 -7 -18 -247 0
164 -1 -7 -18 -248 0
164 -1 -7 -18 -249 0
164 -1 -7 -230 -20 0
164 -1 -7 -230 -21 0
164 -1 -7 -19 -257 0
164 -1 -7 -19 -258 0
164 -1 -7 -19 -259 0
164 -1 -7 -19 -260 0
164 -1 -7 -231 -35 0
164 -1 -7 -18 20 -250 0
164 -1 -7 -230 242 -22 0
164 -1 -7 -18 21 -251 0
164 -1 -7 -230 243 -23 0
164 -1 -7 -18 22 -252 0
164 -1 -7 -230 244 -24 0
164 -1 -7 -18 23 -253 0
164 -1 -7 -230 245 -25 0
164 -1 -7 -18 24 -254 0
164 -1 -7 -230 246 -26 0
164 -1 -7 -18 25 -255 0
164 -1 -7 -230 247 -27 0
164 -1 -7 -18 26 -256 0
164 -1 -7 -230 248 -28 0
164 -1 -7 -19 35 -261 0
164 -1 -7 -231 257 -36 0
164 -1 -7 -19 36 -262 0
164 -1 -7 -231 258 -37 0
164 -1 -7 -19 37 -263 0
164 -1 -7 -231 259 -38 0
164 -1 -7 -19 38 -264 0
164 -1 -7 -231 260 -39 0
164 -1 -7 -19 39 -265 0
164 -1 -7 -231 261 -40 0
164 -1 -7 -19 40 -266 0
164 -1 -7 -231 262 -41 0
164 -2 -3 47 84 85 0
164 -2 -3 -47 -94 0
164 -2 -3 -47 -95 0
164 -2 -3 -47 -96 0
164 -2 -3 -84 -57 0
164 -2 -3 -84 -58 0
164 -2 -3 -84 -59 0
164 -2 -3 -84 -60 0
164 -2 -3 -84 -61 0
164 -2 -3 -84 -62 0
164 -2 -3 -84 -63 0
164 -2 -3 -84 -64 0
164 -2 -3 -85 -72 0
164 -2 -3 -85 -73 0
164 -2 -3 -47 57 -97 0
164 -2 -3 -84 94 -65 0
164 -2 -3 -47 58 -98 0
164 -2 -3 -84 95 -66 0
164 -2 -3 -47 59 -99 0
164 -2 -3 -84 96 -67 0
164 -2 -3 -47 60 -100 0
164 -2 -3 -84 97 -68 0
164 -2 -3 -47 61 -101 0
164 -2 -3 -84 98 -69 0
164 -2 -3 -47 62 -102 0
164 -2 -3 -84 99 -70 0
164 -2 -3 -47 63 -103 0
164 -2 -3 -84 100 -71 0
164 -2 -3 -47 64 -104 0
164 -2 -3 -47 65 -105 0
164 -2 -3 -47 66 -106 0
164 -2 -3 -47 67 -107 0
164 -2 -3 -47 68 -108 0
164 -2 -3 -85 109 -74 0
164 -2 -3 -85 110 -75 0
164 -2 -3 -85 111 -76 0
164 -2 -4 49 121 0
164 -2 -4 -49 -131 0
164 -2 -4 -49 -132 0
164 -2 -4 -49 -133 0
164 -2 -4 -121 -57 0
164 -2 -4 -121 -58 0
164 -2 -4 -121 -59 0
164 -2 -4 -49 57 -134 0
164 -2 -4 -121 131 -60 0
164 -2 -4 -49 58 -135 0
164 -2 -4 -121 132 -61 0
164 -2 -4 -49 59 -136 0
164 -2 -4 -121 133 -62 0
164 -2 -4 -49 60 -137 0
164 -2 -4 -121 134 -63 0
164 -2 -4 -49 61 -138 0
164 -2 -4 -121 135 -64 0
164 -2 -4 -49 62 -139 0
164 -2 -4 -121 136 -65 0
164 -2 -4 -49 63 -140 0
164 -2 -4 -121 137 -66 0
164 -2 -4 -49 64 -141 0
164 -2 -4 -121 138 -67 0
164 -2 -4 -49 65 -142 0
164 -2 -4 -121 139 -68 0
164 -2 -4 -49 66 -143 0
164 -2 -4 -121 140 -69 0
164 -2 -4 -49 67 -144 0
164 -2 -4 -121 141 -70 0
164 -2 -4 -49 68 -145 0
164 -2 -4 -121 142 -71 0
164 -2 -5 51 158 159 0
164 -2 -5 -51 -168 0
164 -2 -5 -51 -169 0
164 -2 -5 -51 -170 0
164 -2 -5 -158 -57 0
164 -2 -5 -158 -58 0
164 -2 -5 -158 -59 0
164 -2 -5 -159 -72 0
164 -2 -5 -159 -73 0
164 -2 -5 -159 -74 0
164 -2 -5 -51 57 -171 0
164 -2 -5 -158 168 -60 0
164 -2 -5 -51 58 -172 0
164 -2 -5 -158 169 -61 0
164 -2 -5 -51 59 -173 0
164 -2 -5 -158 170 -62 0
164 -2 -5 -51 60 -174 0
164 -2 -5 -158 171 -63 0
164 -2 -5 -51 61 -175 0
164 -2 -5 -158 172 -64 0
164 -2 -5 -51 62 -176 0
164 -2 -5 -158 173 -65 0
164 -2 -5 -51 63 -177 0
164 -2 -5 -158 174 -66 0
164 -2 -5 -51 64 -178 0
164 -2 -5 -158 175 -67 0
164 -2 -5 -51 65 -179 0
164 -2 -5 -158 176 -68 0
164 -2 -5 -51 66 -180 0
164 -2 -5 -158 177 -69 0
164 -2 -5 -51 67 -181 0
164 -2 -5 -158 178 -70 0
164 -2 -5 -51 68 -182 0
164 -2 -5 -158 179 -71 0
164 -2 -5 -159 183 -75 0
164 -2 -5 -159 184 -76 0
164 -2 -5 -159 185 -77 0
164 -2 -6 53 195 196 0
164 -2 -6 -53 -205 0
164 -2 -6 -53 -206 0
164 -2 -6 -53 -207 0
164 -2 -6 -195 -57 0
164 -2 -6 -195 -58 0
164 -2 -6 -195 -59 0
164 -2 -6 -196 -72 0
164 -2 -6 -196 -73 0
164 -2 -6 -53 57 -208 0
164 -2 -6 -195 205 -60 0
164 -2 -6 -53 58 -209 0
164 -2 -6 -195 206 -61 0
164 -2 -6 -53 59 -210 0
164 -2 -6 -195 207 -62 0
164 -2 -6 -53 60 -211 0
164 -2 -6 -195 208 -63 0
164 -2 -6 -53 61 -212 0
164 -2 -6 -195 209 -64 0
164 -2 -6 -53 62 -213 0
164 -2 -6 -195 210 -65 0
164 -2 -6 -53 63 -214 0
164 -2 -6 -195 211 -66 0
164 -2 -6 -53 64 -215 0
164 -2 -6 -195 212 -67 0
164 -2 -6 -53 65 -216 0
164 -2 -6 -195 213 -68 0
164 -2 -6 -53 66 -217 0
164 -2 -6 -195 214 -69 0
164 -2 -6 -53 67 -218 0
164 -2 -6 -195 215 -70 0
164 -2 -6 -53 68 -219 0
164 -2 -6 -195 216 -71 0
164 -2 -6 -196 220 -74 0
164 -2 -6 -196 221 -75 0
164 -2 -6 -196 222 -76 0
164 -2 -7 55 232 56 233 0
164 -2 -7 -55 -242 0
164 -2 -7 -55 -243 0
164 -2 -7 -55 -244 0
164 -2 -7 -232 -57 0
164 -2 -7 -232 -58 0
164 -2 -7 -56 -257 0
164 -2 -7 -56 -258 0
164 -2 -7 -56 -259 0
164 -2 -7 -56 -260 0
164 -2 -7 -56 -261 0
164 -2 -7 -56 -262 0
164 -2 -7 -56 -263 0
164 -2 -7 -233 -72 0
164 -2 -7 -55 57 -245 0
164 -2 -7 -232 242 -59 0
164 -2 -7 -55 58 -246 0
164 -2 -7 -232 243 -60 0
164 -2 -7 -55 59 -247 0
164 -2 -7 -232 244 -61 0
164 -2 -7 -55 60 -248 0
164 -2 -7 -232 245 -62 0
164 -2 -7 -55 61 -249 0
164 -2 -7 -232 246 -63 0
164 -2 -7 -55 62 -250 0
164 -2 -7 -232 247 -64 0
164 -2 -7 -55 63 -251 0
164 -2 -7 -232 248 -65 0
164 -2 -7 -55 64 -252 0
164 -2 -7 -232 249 -66 0
164 -2 -7 -55 65 -253 0
164 -2 -7 -232 250 -67 0
164 -2 -7 -55 66 -254 0
164 -2 -7 -232 251 -68 0
164 -2 -7 -55 67 -255 0
164 -2 -7 -232 252 -69 0
164 -2 -7 -55 68 -256 0
164 -2 -7 -232 253 -70 0
164 -2 -7 -56 72 -264 0
164 -2 -7 -233 257 -73 0
164 -2 -7 -56 73 -265 0
164 -2 -7 -233 258 -74 0
164 -2 -7 -56 74 -266 0
164 -2 -7 -233 259 -75 0
164 -3 -4 86 123 87 124 0
164 -3 -4 -86 -131 0
164 -3 -4 -86 -132 0
164 -3 -4 -86 -133 0
164 -3 -4 -86 -134 0
164 -3 -4 -86 -135 0
164 -3 -4 -86 -136 0
164 -3 -4 -86 -137 0
164 -3 -4 -86 -138 0
164 -3 -4 -123 -94 0
164 -3 -4 -123 -95 0
164 -3 -4 -123 -96 0
164 -3 -4 -87 -146 0
164 -3 -4 -87 -147 0
164 -3 -4 -124 -109 0
164 -3 -4 -124 -110 0
164 -3 -4 -124 -111 0
164 -3 -4 -124 -112 0
164 -3 -4 -86 94 -139 0
164 -3 -4 -123 131 -97 0
164 -3 -4 -86 95 -140 0
164 -3 -4 -123 132 -98 0
164 -3 -4 -86 96 -141 0
164 -3 -4 -123 133 -99 0
164 -3 -4 -86 97 -142 0
164 -3 -4 -123 134 -100 0
164 -3 -4 -86 98 -143 0
164 -3 -4 -123 135 -101 0
164 -3 -4 -86 99 -144 0
164 -3 -4 -123 136 -102 0
164 -3 -4 -86 100 -145 0
164 -3 -4 -123 137 -103 0
164 -3 -4 -87 109 -148 0
164 -3 -4 -124 146 -113 0
164 -3 -4 -87 110 -149 0
164 -3 -4 -124 147 -114 0
164 -3 -4 -87 111 -150 0
164 -3 -4 -124 148 -115 0
164 -3 -4 -87 112 -151 0
164 -3 -4 -124 149 -116 0
164 -3 -4 -87 113 -152 0
164 -3 -4 -124 150 -117 0
164 -3 -4 -87 114 -153 0
164 -3 -4 -124 151 -118 0
164 -3 -4 -87 115 -154 0
164 -3 -4 -87 116 -155 0
164 -3 -5 88 160 89 161 0
164 -3 -5 -88 -168 0
164 -3 -5 -88 -169 0
164 -3 -5 -88 -170 0
164 -3 -5 -88 -171 0
164 -3 -5 -88 -172 0
164 -3 -5 -88 -173 0
164 -3 -5 -88 -174 0
164 -3 -5 -88 -175 0
164 -3 -5 -160 -94 0
164 -3 -5 -160 -95 0
164 -3 -5 -160 -96 0
164 -3 -5 -89 -183 0
164 -3 -5 -89 -184 0
164 -3 -5 -161 -109 0
164 -3 -5 -161 -110 0
164 -3 -5 -161 -111 0
164 -3 -5 -88 94 -176 0
164 -3 -5 -160 168 -97 0
164 -3 -5 -88 95 -177 0
164 -3 -5 -160 169 -98 0
164 -3 -5 -88 96 -178 0
164 -3 -5 -160 170 -99 0
164 -3 -5 -88 97 -179 0
164 -3 -5 -160 171 -100 0
164 -3 -5 -88 98 -180 0
164 -3 -5 -160 172 -101 0
164 -3 -5 -88 99 -181 0
164 -3 -5 -160 173 -102 0
164 -3 -5 -88 100 -182 0
164 -3 -5 -160 174 -103 0
164 -3 -5 -89 109 -185 0
164 -3 -5 -161 183 -112 0
164 -3 -5 -89 110 -186 0
164 -3 -5 -161 184 -113 0
164 -3 -5 -89 111 -187 0
164 -3 -5 -161 185 -114 0
164 -3 -5 -89 112 -188 0
164 -3 -5 -161 186 -115 0
164 -3 -5 -89 113 -189 0
164 -3 -5 -161 187 -116 0
164 -3 -5 -89 114 -190 0
164 -3 -5 -161 188 -117 0
164 -3 -5 -89 115 -191 0
164 -3 -5 -161 189 -118 0
164 -3 -5 -89 116 -192 0
164 -3 -6 90 197 91 198 0
164 -3 -6 -90 -205 0
164 -3 -6 -90 -206 0
164 -3 -6 -90 -207 0
164 -3 -6 -90 -208 0
164 -3 -6 -90 -209 0
164 -3 -6 -90 -210 0
164 -3 -6 -90 -211 0
164 -3 -6 -90 -212 0
164 -3 -6 -197 -94 0
164 -3 -6 -197 -95 0
164 -3 -6 -197 -96 0
164 -3 -6 -91 -220 0
164 -3 -6 -91 -221 0
164 -3 -6 -198 -109 0
164 -3 -6 -198 -110 0
164 -3 -6 -90 94 -213 0
164 -3 -6 -197 205 -97 0
164 -3 -6 -90 95 -214 0
164 -3 -6 -197 206 -98 0
164 -3 -6 -90 96 -215 0
164 -3 -6 -197 207 -99 0
164 -3 -6 -90 97 -216 0
164 -3 -6 -197 208 -100 0
164 -3 -6 -90 98 -217 0
164 -3 -6 -197 209 -101 0
164 -3 -6 -90 99 -218 0
164 -3 -6 -197 210 -102 0
164 -3 -6 -90 100 -219 0
164 -3 -6 -197 211 -103 0
164 -3 -6 -91 109 -222 0
164 -3 -6 -198 220 -111 0
164 -3 -6 -91 110 -223 0
164 -3 -6 -198 221 -112 0
164 -3 -6 -91 111 -224 0
164 -3 -6 -198 222 -113 0
164 -3 -6 -91 112 -225 0
164 -3 -6 -198 223 -114 0
164 -3 -6 -91 113 -226 0
164 -3 -6 -198 224 -115 0
164 -3 -6 -91 114 -227 0
164 -3 -6 -198 225 -116 0
164 -3 -6 -91 115 -228 0
164 -3 -6 -198 226 -117 0
164 -3 -6 -91 116 -229 0
164 -3 -6 -198 227 -118 0
164 -3 -7 92 234 93 235 0
164 -3 -7 -92 -242 0
164 -3 -7 -92 -243 0
164 -3 -7 -92 -244 0
164 -3 -7 -92 -245 0
164 -3 -7 -92 -246 0
164 -3 -7 -92 -247 0
164 -3 -7 -92 -248 0
164 -3 -7 -92 -249 0
164 -3 -7 -234 -94 0
164 -3 -7 -234 -95 0
164 -3 -7 -93 -257 0
164 -3 -7 -93 -258 0
164 -3 -7 -235 -109 0
164 -3 -7 -92 94 -250 0
164 -3 -7 -234 242 -96 0
164 -3 -7 -92 95 -251 0
164 -3 -7 -234 243 -97 0
164 -3 -7 -92 96 -252 0
164 -3 -7 -234 244 -98 0
164 -3 -7 -92 97 -253 0
164 -3 -7 -234 245 -99 0
164 -3 -7 -92 98 -254 0
164 -3 -7 -234 246 -100 0
164 -3 -7 -92 99 -255 0
164 -3 -7 -234 247 -101 0
164 -3 -7 -92 100 -256 0
164 -3 -7 -234 248 -102 0
164 -3 -7 -93 109 -259 0
164 -3 -7 -235 257 -110 0
164 -3 -7 -93 110 -260 0
164 -3 -7 -235 258 -111 0
164 -3 -7 -93 111 -261 0
164 -3 -7 -235 259 -112 0
164 -3 -7 -93 112 -262 0
164 -3 -7 -235 260 -113 0
164 -3 -7 -93 113 -263 0
164 -3 -7 -235 261 -114 0
164 -3 -7 -93 114 -264 0
164 -3 -7 -235 262 -115 0
164 -3 -7 -93 115 -265 0
164 -3 -7 -235 263 -116 0
164 -3 -7 -93 116 -266 0
164 -3 -7 -235 264 -117 0
164 -4 -5 125 162 126 163 0
164 -4 -5 -125 -168 0
164 -4 -5 -125 -169 0
164 -4 -5 -125 -170 0
164 -4 -5 -162 -131 0
164 -4 -5 -162 -132 0
164 -4 -5 -162 -133 0
164 -4 -5 -126 -183 0
164 -4 -5 -126 -184 0
164 -4 -5 -126 -185 0
164 -4 -5 -126 -186 0
164 -4 -5 -163 -146 0
164 -4 -5 -163 -147 0
164 -4 -5 -163 -148 0
164 -4 -5 -125 131 -171 0
164 -4 -5 -162 168 -134 0
164 -4 -5 -125 132 -172 0
164 -4 -5 -162 169 -135 0
164 -4 -5 -125 133 -173 0
164 -4 -5 -162 170 -136 0
164 -4 -5 -125 134 -174 0
164 -4 -5 -162 171 -137 0
164 -4 -5 -125 135 -175 0
164 -4 -5 -162 172 -138 0
164 -4 -5 -125 136 -176 0
164 -4 -5 -162 173 -139 0
164 -4 -5 -125 137 -177 0
164 -4 -5 -162 174 -140 0
164 -4 -5 -125 138 -178 0
164 -4 -5 -162 175 -141 0
164 -4 -5 -125 139 -179 0
164 -4 -5 -162 176 -142 0
164 -4 -5 -125 140 -180 0
164 -4 -5 -162 177 -143 0
164 -4 -5 -125 141 -181 0
164 -4 -5 -162 178 -144 0
164 -4 -5 -125 142 -182 0
164 -4 -5 -162 179 -145 0
164 -4 -5 -126 146 -187 0
164 -4 -5 -163 183 -149 0
164 -4 -5 -126 147 -188 0
164 -4 -5 -163 184 -150 0
164 -4 -5 -126 148 -189 0
164 -4 -5 -163 185 -151 0
164 -4 -5 -126 149 -190 0
164 -4 -5 -163 186 -152 0
164 -4 -5 -126 150 -191 0
164 -4 -5 -163 187 -153 0
164 -4 -5 -126 151 -192 0
164 -4 -5 -163 188 -154 0
164 -4 -6 127 199 128 200 0
164 -4 -6 -127 -205 0
164 -4 -6 -127 -206 0
164 -4 -6 -127 -207 0
164 -4 -6 -199 -131 0
164 -4 -6 -199 -132 0
164 -4 -6 -199 -133 0
164 -4 -6 -128 -220 0
164 -4 -6 -128 -221 0
164 -4 -6 -128 -222 0
164 -4 -6 -128 -223 0
164 -4 -6 -200 -146 0
164 -4 -6 -200 -147 0
164 -4 -6 -127 131 -208 0
164 -4 -6 -199 205 -134 0
164 -4 -6 -127 132 -209 0
164 -4 -6 -199 206 -135 0
164 -4 -6 -127 133 -210 0
164 -4 -6 -199 207 -136 0
164 -4 -6 -127 134 -211 0
164 -4 -6 -199 208 -137 0
164 -4 -6 -127 135 -212 0
164 -4 -6 -199 209 -138 0
164 -4 -6 -127 136 -213 0
164 -4 -6 -199 210 -139 0
164 -4 -6 -127 137 -214 0
164 -4 -6 -199 211 -140 0
164 -4 -6 -127 138 -215 0
164 -4 -6 -199 212 -141 0
164 -4 -6 -127 139 -216 0
164 -4 -6 -199 213 -142 0
164 -4 -6 -127 140 -217 0
164 -4 -6 -199 214 -143 0
164 -4 -6 -127 141 -218 0
164 -4 -6 -199 215 -144 0
164 -4 -6 -127 142 -219 0
164 -4 -6 -199 216 -145 0
164 -4 -6 -128 146 -224 0
164 -4 -6 -200 220 -148 0
164 -4 -6 -128 147 -225 0
164 -4 -6 -200 221 -149 0
164 -4 -6 -128 148 -226 0
164 -4 -6 -200 222 -150 0
164 -4 -6 -128 149 -227 0
164 -4 -6 -200 223 -151 0
164 -4 -6 -128 150 -228 0
164 -4 -6 -200 224 -152 0
164 -4 -6 -128 151 -229 0
164 -4 -6 -200 225 -153 0
164 -4 -7 129 236 130 237 0
164 -4 -7 -129 -242 0
164 -4 -7 -129 -243 0
164 -4 -7 -129 -244 0
164 -4 -7 -236 -131 0
164 -4 -7 -236 -132 0
164 -4 -7 -130 -257 0
164 -4 -7 -130 -258 0
164 -4 -7 -130 -259 0
164 -4 -7 -130 -260 0
164 -4 -7 -237 -146 0
164 -4 -7 -129 131 -245 0
164 -4 -7 -236 242 -133 0
164 -4 -7 -129 132 -246 0
164 -4 -7 -236 243 -134 0
164 -4 -7 -129 133 -247 0
164 -4 -7 -236 244 -135 0
164 -4 -7 -129 134 -248 0
164 -4 -7 -236 245 -136 0
164 -4 -7 -129 135 -249 0
164 -4 -7 -236 246 -137 0
164 -4 -7 -129 136 -250 0
164 -4 -7 -236 247 -138 0
164 -4 -7 -129 137 -251 0
164 -4 -7 -236 248 -139 0
164 -4 -7 -129 138 -252 0
164 -4 -7 -236 249 -140 0
164 -4 -7 -129 139 -253 0
164 -4 -7 -236 250 -141 0
164 -4 -7 -129 140 -254 0
164 -4 -7 -236 251 -142 0
164 -4 -7 -129 141 -255 0
164 -4 -7 -236 252 -143 0
164 -4 -7 -129 142 -256 0
164 -4 -7 -236 253 -144 0
164 -4 -7 -130 146 -261 0
164 -4 -7 -237 257 -147 0
164 -4 -7 -130 147 -262 0
164 -4 -7 -237 258 -148 0
164 -4 -7 -130 148 -263 0
164 -4 -7 -237 259 -149 0
164 -4 -7 -130 149 -264 0
164 -4 -7 -237 260 -150 0
164 -4 -7 -130 150 -265 0
164 -4 -7 -237 261 -151 0
164 -4 -7 -130 151 -266 0
164 -4 -7 -237 262 -152 0
164 -5 -6 164 201 165 202 0
164 -5 -6 -164 -205 0
164 -5 -6 -164 -206 0
164 -5 -6 -164 -207 0
164 -5 -6 -201 -168 0
164 -5 -6 -201 -169 0
164 -5 -6 -201 -170 0
164 -5 -6 -165 -220 0
164 -5 -6 -165 -221 0
164 -5 -6 -165 -222 0
164 -5 -6 -202 -183 0
164 -5 -6 -202 -184 0
164 -5 -6 -164 168 -208 0
164 -5 -6 -201 205 -171 0
164 -5 -6 -164 169 -209 0
164 -5 -6 -201 206 -172 0
164 -5 -6 -164 170 -210 0
164 -5 -6 -201 207 -173 0
164 -5 -6 -164 171 -211 0
164 -5 -6 -201 208 -174 0
164 -5 -6 -164 172 -212 0
164 -5 -6 -201 209 -175 0
164 -5 -6 -164 173 -213 0
164 -5 -6 -201 210 -176 0
164 -5 -6 -164 174 -214 0
164 -5 -6 -201 211 -177 0
164 -5 -6 -164 175 -215 0
164 -5 -6 -201 212 -178 0
164 -5 -6 -164 176 -216 0
164 -5 -6 -201 213 -179 0
164 -5 -6 -164 177 -217 0
164 -5 -6 -201 214 -180 0
164 -5 -6 -164 178 -218 0
164 -5 -6 -201 215 -181 0
164 -5 -6 -164 179 -219 0
164 -5 -6 -201 216 -182 0
164 -5 -6 -165 183 -223 0
164 -5 -6 -202 220 -185 0
164 -5 -6 -165 184 -224 0
164 -5 -6 -202 221 -186 0
164 -5 -6 -165 185 -225 0
164 -5 -6 -202 222 -187 0
164 -5 -6 -165 186 -226 0
164 -5 -6 -202 223 -188 0
164 -5 -6 -165 187 -227 0
164 -5 -6 -202 224 -189 0
164 -5 -6 -165 188 -228 0
164 -5 -6 -202 225 -190 0
164 -5 -6 -165 189 -229 0
164 -5 -6 -202 226 -191 0
164 -5 -7 166 238 167 239 0
164 -5 -7 -166 -242 0
164 -5 -7 -166 -243 0
164 -5 -7 -166 -244 0
164 -5 -7 -238 -168 0
164 -5 -7 -238 -169 0
164 -5 -7 -167 -257 0
164 -5 -7 -167 -258 0
164 -5 -7 -167 -259 0
164 -5 -7 -239 -183 0
164 -5 -7 -166 168 -245 0
164 -5 -7 -238 242 -170 0
164 -5 -7 -166 169 -246 0
164 -5 -7 -238 243 -171 0
164 -5 -7 -166 170 -247 0
164 -5 -7 -238 244 -172 0
164 -5 -7 -166 171 -248 0
164 -5 -7 -238 245 -173 0
164 -5 -7 -166 172 -249 0
164 -5 -7 -238 246 -174 0
164 -5 -7 -166 173 -250 0
164 -5 -7 -238 247 -175 0
164 -5 -7 -166 174 -251 0
164 -5 -7 -238 248 -176 0
164 -5 -7 -166 175 -252 0
164 -5 -7 -238 249 -177 0
164 -5 -7 -166 176 -253 0
164 -5 -7 -238 250 -178 0
164 -5 -7 -166 177 -254 0
164 -5 -7 -238 251 -179 0
164 -5 -7 -166 178 -255 0
164 -5 -7 -238 252 -180 0
164 -5 -7 -166 179 -256 0
164 -5 -7 -238 253 -181 0
164 -5 -7 -167 183 -260 0
164 -5 -7 -239 257 -184 0
164 -5 -7 -167 184 -261 0
164 -5 -7 -239 258 -185 0
164 -5 -7 -167 185 -262 0
164 -5 -7 -239 259 -186 0
164 -5 -7 -167 186 -263 0
164 -5 -7 -239 260 -187 0
164 -5 -7 -167 187 -264 0
164 -5 -7 -239 261 -188 0
164 -5 -7 -167 188 -265 0
164 -5 -7 -239 262 -189 0
164 -5 -7 -167 189 -266 0
164 -5 -7 -239 263 -190 0
164 -6 -7 203 240 204 241 0
164 -6 -7 -203 -242 0
164 -6 -7 -203 -243 0
164 -6 -7 -203 -244 0
164 -6 -7 -240 -205 0
164 -6 -7 -240 -206 0
164 -6 -7 -204 -257 0
164 -6 -7 -204 -258 0
164 -6 -7 -241 -220 0
164 -6 -7 -203 205 -245 0
164 -6 -7 -240 242 -207 0
164 -6 -7 -203 206 -246 0
164 -6 -7 -240 243 -208 0
164 -6 -7 -203 207 -247 0
164 -6 -7 -240 244 -209 0
164 -6 -7 -203 208 -248 0
164 -6 -7 -240 245 -210 0
164 -6 -7 -203 209 -249 0
164 -6 -7 -240 246 -211 0
164 -6 -7 -203 210 -250 0
164 -6 -7 -240 247 -212 0
164 -6 -7 -203 211 -251 0
164 -6 -7 -240 248 -213 0
164 -6 -7 -203 212 -252 0
164 -6 -7 -240 249 -214 0
164 -6 -7 -203 213 -253 0
164 -6 -7 -240 250 -215 0
164 -6 -7 -203 214 -254 0
164 -6 -7 -240 251 -216 0
164 -6 -7 -203 215 -255 0
164 -6 -7 -240 252 -217 0
164 -6 -7 -203 216 -256 0
164 -6 -7 -240 253 -218 0
164 -6 -7 -204 220 -259 0
164 -6 -7 -241 257 -221 0
164 -6 -7 -204 221 -260 0
164 -6 -7 -241 258 -222 0
164 -6 -7 -204 222 -261 0
164 -6 -7 -241 259 -223 0
164 -6 -7 -204 223 -262 0
164 -6 -7 -241 260 -224 0
164 -6 -7 -204 224 -263 0
164 -6 -7 -241 261 -225 0
164 -6 -7 -204 225 -264 0
164 -6 -7 -241 262 -226 0
164 -6 -7 -204 226 -265 0
164 -6 -7 -241 263 -227 0
164 -6 -7 -204 227 -266 0
164 -6 -7 -241 264 -228 0
164 27 -1 0
164 28 -1 0
164 29 -1 0
164 30 -1 0
164 31 -1 0
164 32 -1 0
164 33 -1 0
164 34 -1 0
164 41 -1 0
164 42 -1 0
164 43 -1 0
164 44 -1 0
164 69 -2 0
164 70 -2 0
164 71 -2 0
164 75 -2 0
164 76 -2 0
164 77 -2 0
164 78 -2 0
164 79 -2 0
164 80 -2 0
164 81 -2 0
164 101 -3 0
164 102 -3 0
164 103 -3 0
164 104 -3 0
164 105 -3 0
164 106 -3 0
164 107 -3 0
164 108 -3 0
164 117 -3 0
164 118 -3 0
164 143 -4 0
164 144 -4 0
164 145 -4 0
164 152 -4 0
164 153 -4 0
164 154 -4 0
164 155 -4 0
164 180 -5 0
164 181 -5 0
164 182 -5 0
164 190 -5 0
164 191 -5 0
164 192 -5 0
164 217 -6 0
164 218 -6 0
164 219 -6 0
164 228 -6 0
164 229 -6 0
164 255 -7 0
164 256 -7 0
164 266 -7 0
